NAME          
ROWS
 N  OBJ
 L  c1
 L  c2
COLUMNS
    MARKER    'MARKER'                 'INTORG'
    x[1]      c1        722
    x[1]      c2        304
    x[1]      OBJ       -617
    x[2]      c1        771
    x[2]      c2        458
    x[2]      OBJ       -439
    x[3]      c1        75
    x[3]      c2        35
    x[3]      OBJ       -682
    x[4]      c1        555
    x[4]      c2        550
    x[4]      OBJ       -789
    x[5]      c1        130
    x[5]      c2        832
    x[5]      OBJ       -298
    x[6]      c1        642
    x[6]      c2        445
    x[6]      OBJ       -698
    x[7]      c1        110
    x[7]      c2        792
    x[7]      OBJ       -825
    x[8]      c1        787
    x[8]      c2        528
    x[8]      OBJ       -280
    x[9]      c1        415
    x[9]      c2        49
    x[9]      OBJ       -745
    x[10]     c1        193
    x[10]     c2        251
    x[10]     OBJ       -92
    x[11]     c1        417
    x[11]     c2        102
    x[11]     OBJ       -399
    x[12]     c1        535
    x[12]     c2        631
    x[12]     OBJ       -309
    x[13]     c1        102
    x[13]     c2        365
    x[13]     OBJ       -539
    x[14]     c1        632
    x[14]     c2        835
    x[14]     OBJ       -865
    x[15]     c1        445
    x[15]     c2        456
    x[15]     OBJ       -12
    x[16]     c1        404
    x[16]     c2        975
    x[16]     OBJ       -723
    x[17]     c1        794
    x[17]     c2        822
    x[17]     OBJ       -184
    x[18]     c1        859
    x[18]     c2        881
    x[18]     OBJ       -640
    x[19]     c1        451
    x[19]     c2        236
    x[19]     OBJ       -903
    x[20]     c1        978
    x[20]     c2        769
    x[20]     OBJ       -963
    x[21]     c1        739
    x[21]     c2        278
    x[21]     OBJ       -212
    x[22]     c1        549
    x[22]     c2        962
    x[22]     OBJ       -820
    x[23]     c1        914
    x[23]     c2        8
    x[23]     OBJ       -362
    x[24]     c1        50
    x[24]     c2        242
    x[24]     OBJ       -70
    x[25]     c1        48
    x[25]     c2        845
    x[25]     OBJ       -736
    x[26]     c1        828
    x[26]     c2        620
    x[26]     OBJ       -382
    x[27]     c1        265
    x[27]     c2        189
    x[27]     OBJ       -897
    x[28]     c1        982
    x[28]     c2        972
    x[28]     OBJ       -783
    x[29]     c1        117
    x[29]     c2        392
    x[29]     OBJ       -312
    x[30]     c1        866
    x[30]     c2        576
    x[30]     OBJ       -691
RHS
    rhs       c1        7688
    rhs       c2        7700
RANGES
BOUNDS
 BV bounds    x[1]
 BV bounds    x[2]
 BV bounds    x[3]
 BV bounds    x[4]
 BV bounds    x[5]
 BV bounds    x[6]
 BV bounds    x[7]
 BV bounds    x[8]
 BV bounds    x[9]
 BV bounds    x[10]
 BV bounds    x[11]
 BV bounds    x[12]
 BV bounds    x[13]
 BV bounds    x[14]
 BV bounds    x[15]
 BV bounds    x[16]
 BV bounds    x[17]
 BV bounds    x[18]
 BV bounds    x[19]
 BV bounds    x[20]
 BV bounds    x[21]
 BV bounds    x[22]
 BV bounds    x[23]
 BV bounds    x[24]
 BV bounds    x[25]
 BV bounds    x[26]
 BV bounds    x[27]
 BV bounds    x[28]
 BV bounds    x[29]
 BV bounds    x[30]
ENDATA
